c 
c G(k,n,p) graph
c graph gen seed     : 531
c number of vertices : 70
c max number of edges: 1225
c number of classes  : 2
c edge density       : 0.200000
c edge probability   : 0.400000
c data structure     : sparse
c
c           Graph Stats
c number of vertices  : 70
c nonisolated vertices: 70
c number of edges     : 469
c edge density        : 0.194203
c max degree          : 20
c avg degree          : 13.40
c min degree          : 9
p col 70 469
e 1 70
e 1 66
e 1 65
e 1 64
e 1 59
e 1 54
e 1 53
e 1 47
e 1 46
e 1 42
e 1 36
e 1 34
e 1 26
e 1 19
e 1 5
e 2 70
e 2 69
e 2 68
e 2 65
e 2 64
e 2 63
e 2 54
e 2 53
e 2 50
e 2 49
e 2 46
e 2 42
e 2 41
e 2 36
e 2 27
e 2 26
e 2 25
e 2 24
e 2 15
e 2 5
e 3 65
e 3 64
e 3 59
e 3 58
e 3 54
e 3 51
e 3 49
e 3 22
e 3 20
e 3 14
e 3 10
e 3 5
e 4 70
e 4 66
e 4 65
e 4 64
e 4 63
e 4 58
e 4 54
e 4 51
e 4 47
e 4 42
e 4 31
e 4 24
e 4 20
e 4 14
e 4 12
e 4 10
e 4 8
e 5 56
e 5 37
e 5 32
e 5 29
e 5 28
e 5 18
e 5 7
e 6 70
e 6 69
e 6 65
e 6 63
e 6 60
e 6 59
e 6 53
e 6 50
e 6 49
e 6 47
e 6 46
e 6 45
e 6 41
e 6 25
e 6 12
e 6 8
e 7 70
e 7 69
e 7 59
e 7 46
e 7 26
e 7 24
e 7 12
e 7 10
e 8 67
e 8 61
e 8 48
e 8 38
e 8 35
e 8 28
e 8 23
e 8 21
e 8 18
e 8 16
e 9 70
e 9 69
e 9 68
e 9 60
e 9 58
e 9 54
e 9 53
e 9 50
e 9 49
e 9 45
e 9 42
e 9 36
e 9 33
e 9 25
e 9 20
e 9 19
e 9 14
e 9 10
e 10 56
e 10 55
e 10 52
e 10 44
e 10 39
e 10 30
e 10 21
e 10 17
e 10 11
e 11 70
e 11 66
e 11 63
e 11 62
e 11 60
e 11 46
e 11 42
e 11 41
e 11 36
e 11 34
e 11 33
e 11 27
e 11 24
e 11 20
e 12 56
e 12 48
e 12 28
e 12 18
e 12 17
e 12 16
e 13 69
e 13 66
e 13 64
e 13 63
e 13 60
e 13 58
e 13 50
e 13 46
e 13 45
e 13 26
e 14 61
e 14 55
e 14 44
e 14 35
e 14 29
e 14 18
e 15 61
e 15 56
e 15 48
e 15 40
e 15 38
e 15 30
e 15 29
e 15 28
e 15 21
e 15 18
e 16 69
e 16 65
e 16 63
e 16 60
e 16 53
e 16 49
e 16 41
e 16 36
e 16 34
e 16 24
e 17 69
e 17 68
e 17 62
e 17 60
e 17 49
e 17 47
e 17 46
e 17 45
e 17 41
e 17 36
e 17 34
e 17 33
e 17 31
e 17 24
e 17 19
e 18 70
e 18 69
e 18 66
e 18 65
e 18 62
e 18 58
e 18 54
e 18 51
e 18 49
e 18 46
e 18 31
e 18 27
e 18 25
e 18 19
e 19 61
e 19 55
e 19 52
e 19 48
e 19 40
e 19 35
e 19 28
e 19 23
e 19 21
e 20 67
e 20 61
e 20 56
e 20 55
e 20 52
e 20 39
e 20 35
e 20 32
e 20 28
e 20 23
e 21 69
e 21 68
e 21 65
e 21 64
e 21 62
e 21 54
e 21 53
e 21 51
e 21 42
e 21 31
e 21 27
e 21 22
e 22 67
e 22 61
e 22 57
e 22 56
e 22 55
e 22 48
e 22 35
e 22 30
e 23 68
e 23 65
e 23 53
e 23 51
e 23 50
e 23 34
e 23 33
e 23 27
e 23 26
e 24 56
e 24 55
e 24 48
e 24 39
e 24 37
e 24 32
e 24 29
e 25 61
e 25 55
e 25 52
e 25 48
e 25 39
e 25 30
e 26 61
e 26 55
e 26 48
e 26 43
e 26 35
e 26 28
e 27 67
e 27 56
e 27 55
e 27 48
e 27 43
e 27 29
e 28 69
e 28 65
e 28 60
e 28 51
e 28 50
e 28 49
e 28 47
e 28 46
e 28 34
e 28 31
e 29 64
e 29 62
e 29 60
e 29 54
e 29 49
e 29 47
e 29 45
e 29 41
e 29 36
e 29 33
e 30 65
e 30 60
e 30 54
e 30 50
e 30 49
e 30 45
e 30 42
e 30 34
e 31 67
e 31 48
e 31 43
e 31 40
e 31 35
e 31 32
e 32 68
e 32 66
e 32 65
e 32 63
e 32 62
e 32 58
e 32 54
e 32 53
e 32 51
e 32 47
e 32 46
e 32 45
e 32 36
e 33 67
e 33 56
e 33 55
e 33 44
e 33 43
e 34 67
e 34 61
e 34 57
e 34 43
e 34 39
e 34 37
e 34 35
e 35 70
e 35 65
e 35 60
e 35 59
e 35 54
e 35 45
e 35 36
e 36 67
e 36 57
e 36 55
e 36 39
e 36 37
e 37 68
e 37 63
e 37 60
e 37 59
e 37 58
e 37 54
e 37 50
e 38 66
e 38 62
e 38 51
e 38 50
e 38 49
e 38 47
e 38 46
e 38 41
e 39 66
e 39 65
e 39 64
e 39 53
e 39 49
e 39 45
e 39 42
e 39 41
e 40 64
e 40 60
e 40 59
e 40 58
e 40 54
e 40 51
e 40 50
e 40 49
e 40 46
e 41 57
e 41 56
e 41 48
e 41 43
e 42 67
e 42 52
e 42 44
e 42 43
e 43 70
e 43 64
e 43 62
e 43 60
e 43 54
e 43 53
e 43 49
e 43 47
e 43 45
e 44 69
e 44 66
e 44 63
e 44 60
e 44 59
e 44 58
e 44 54
e 44 53
e 45 48
e 46 67
e 46 56
e 46 48
e 47 67
e 47 61
e 47 57
e 47 56
e 47 48
e 48 69
e 48 68
e 48 65
e 48 60
e 48 59
e 48 58
e 49 61
e 49 57
e 49 52
e 51 61
e 51 57
e 51 55
e 52 69
e 52 68
e 52 62
e 52 58
e 52 54
e 53 67
e 53 61
e 53 57
e 53 55
e 54 55
e 55 69
e 55 68
e 55 64
e 55 63
e 55 62
e 55 58
e 57 70
e 57 69
e 57 68
e 58 61
e 59 67
e 59 61
e 60 61
e 61 66
e 61 65
e 61 63
e 63 67
e 64 67
e 67 69
e 67 68
